decision_x1=[0,2];
decision_x2=[0,2];
decision_x3=[0,2];
decision_x4=[0,2];
decision_x5=[0,2];
decision_x6=[0,2];
decision_x7=[0,2];
decision_x8=[0,2];
decision_x9=[0,2];
decision_x10=[0,2];
decision_x11=[0,2];
decision_x12=[0,2];
decision_x13=[0,2];
decision_x14=[0,2];
decision_x15=[0,2];
random_y1=[0,2];
random_y2=[0,2];
random_y3=[0,2];
constraint_x3_x1=[
0,1,0.044|
0,2,3.9|
1,0,5.4|
1,2,2.1|
2,0,0.058|
2,1,5.2|
];
constraint_x5_x1=[
0,1,7.1|
0,2,7.6|
1,0,4.2|
1,2,6.5|
2,0,2.4|
2,1,6.8|
];
constraint_x5_x3=[
0,1,1.3|
0,2,2.3|
1,0,6.7|
1,2,7.6|
2,0,6.7|
2,1,8.2|
];
constraint_x6_x1=[
0,1,8.9|
0,2,6.3|
1,0,9.4|
1,2,7.4|
2,0,0.62|
2,1,2.2|
];
constraint_x6_x2=[
0,1,8|
0,2,1.4|
1,0,7.3|
1,2,1.4|
2,0,9.9|
2,1,1.7|
];
constraint_x6_x4=[
0,1,0.62|
0,2,6.3|
1,0,1.1|
1,2,9.2|
2,0,8.5|
2,1,4|
];
constraint_x7_x1=[
0,1,2.8|
0,2,9.4|
1,0,3.9|
1,2,9.9|
2,0,0.99|
2,1,7.2|
];
constraint_x7_x2=[
0,1,0.86|
0,2,9.7|
1,0,7|
1,2,2.3|
2,0,2.2|
2,1,6.4|
];
constraint_x7_x3=[
0,1,5.9|
0,2,8.8|
1,0,5.3|
1,2,5.8|
2,0,8.3|
2,1,1.2|
];
constraint_x7_x5=[
0,1,9.5|
0,2,4.4|
1,0,4.2|
1,2,5.1|
2,0,9.8|
2,1,4.2|
];
constraint_x8_x1=[
0,1,2|
0,2,9.3|
1,0,1.6|
1,2,4.4|
2,0,6.9|
2,1,3.5|
];
constraint_x8_x2=[
0,1,5.5|
0,2,7.7|
1,0,0.74|
1,2,7|
2,0,7.4|
2,1,0.7|
];
constraint_x8_x5=[
0,1,3.3|
0,2,7.9|
1,0,0.84|
1,2,9.8|
2,0,7.1|
2,1,9.8|
];
constraint_x8_x7=[
0,1,0.87|
0,2,1.3|
1,0,4.7|
1,2,9.4|
2,0,7.4|
2,1,4.7|
];
constraint_x9_x2=[
0,1,7|
0,2,9.1|
1,0,1.2|
1,2,9.9|
2,0,5.1|
2,1,9.7|
];
constraint_x9_x3=[
0,1,9.8|
0,2,5.5|
1,0,7.4|
1,2,5.6|
2,0,8.6|
2,1,5.5|
];
constraint_x9_x6=[
0,1,9.3|
0,2,8.2|
1,0,6.2|
1,2,2.6|
2,0,5.2|
2,1,3.2|
];
constraint_x10_x1=[
0,1,2.8|
0,2,4.8|
1,0,1.2|
1,2,9.7|
2,0,5.1|
2,1,0.69|
];
constraint_x10_x2=[
0,1,5.4|
0,2,5.6|
1,0,9.1|
1,2,5.7|
2,0,3.7|
2,1,8.3|
];
constraint_x10_x7=[
0,1,6.8|
0,2,6.8|
1,0,3.8|
1,2,1.5|
2,0,9.1|
2,1,6.4|
];
constraint_x10_x8=[
0,1,2.1|
0,2,1.8|
1,0,8.2|
1,2,7|
2,0,4.9|
2,1,0.25|
];
constraint_x11_x2=[
0,1,9.8|
0,2,9.2|
1,0,6.4|
1,2,6.9|
2,0,8.6|
2,1,9.3|
];
constraint_x11_x3=[
0,1,5|
0,2,0.22|
1,0,7.3|
1,2,8.7|
2,0,5|
2,1,4.5|
];
constraint_x11_x4=[
0,1,1.7|
0,2,6|
1,0,0.75|
1,2,4.7|
2,0,0.24|
2,1,0.28|
];
constraint_x11_x6=[
0,1,3.2|
0,2,4.2|
1,0,8.3|
1,2,1.8|
2,0,5.2|
2,1,1.3|
];
constraint_x11_x7=[
0,1,10|
0,2,4.8|
1,0,1.2|
1,2,0.63|
2,0,6.7|
2,1,2.7|
];
constraint_x11_x8=[
0,1,2.9|
0,2,7.7|
1,0,9.2|
1,2,8.6|
2,0,6.9|
2,1,10|
];
constraint_x12_x3=[
0,1,7.5|
0,2,9.6|
1,0,5.8|
1,2,2|
2,0,5.2|
2,1,2.6|
];
constraint_x12_x6=[
0,1,7.6|
0,2,4.7|
1,0,4.9|
1,2,6.5|
2,0,5.8|
2,1,8.5|
];
constraint_x12_x7=[
0,1,6.6|
0,2,7.1|
1,0,2.2|
1,2,1.5|
2,0,2.6|
2,1,2.8|
];
constraint_x12_x8=[
0,1,9.8|
0,2,3.8|
1,0,6|
1,2,5.1|
2,0,8.4|
2,1,3.9|
];
constraint_x13_x2=[
0,1,1.7|
0,2,8.2|
1,0,7.3|
1,2,3.3|
2,0,7.3|
2,1,0.63|
];
constraint_x13_x7=[
0,1,8.2|
0,2,6.9|
1,0,3.8|
1,2,7.7|
2,0,8|
2,1,5.1|
];
constraint_x13_x11=[
0,1,7.3|
0,2,4.4|
1,0,4.7|
1,2,5.3|
2,0,8.6|
2,1,5.7|
];
constraint_x14_x3=[
0,1,1|
0,2,4.8|
1,0,9.9|
1,2,5.8|
2,0,6.5|
2,1,7.6|
];
constraint_x14_x4=[
0,1,4|
0,2,3.5|
1,0,8.9|
1,2,1.7|
2,0,6.6|
2,1,7.6|
];
constraint_x14_x6=[
0,1,2.6|
0,2,7.7|
1,0,3.4|
1,2,9.2|
2,0,5.5|
2,1,2.3|
];
constraint_x14_x8=[
0,1,8.2|
0,2,3.5|
1,0,3.8|
1,2,8.1|
2,0,1.9|
2,1,7.3|
];
constraint_x14_x9=[
0,1,5.4|
0,2,6.5|
1,0,0.93|
1,2,6.8|
2,0,7.5|
2,1,8.6|
];
constraint_x14_x10=[
0,1,7.6|
0,2,8.7|
1,0,1.6|
1,2,2.3|
2,0,5.7|
2,1,1.5|
];
constraint_x14_x11=[
0,1,7.9|
0,2,0.71|
1,0,3.9|
1,2,4|
2,0,5.6|
2,1,3.6|
];
constraint_x14_x12=[
0,1,1.7|
0,2,0.89|
1,0,0.68|
1,2,2.7|
2,0,7.6|
2,1,5.3|
];
constraint_x14_x13=[
0,1,9.3|
0,2,8.9|
1,0,9.4|
1,2,3|
2,0,0.6|
2,1,5|
];
constraint_x15_x3=[
0,1,4.7|
0,2,9.4|
1,0,0.21|
1,2,7.1|
2,0,3|
2,1,5.1|
];
constraint_x15_x4=[
0,1,6|
0,2,4.3|
1,0,8.2|
1,2,2.4|
2,0,9|
2,1,0.097|
];
constraint_x15_x5=[
0,1,3.5|
0,2,5.7|
1,0,1.3|
1,2,8.8|
2,0,7.1|
2,1,8|
];
constraint_x15_x6=[
0,1,3.2|
0,2,0.97|
1,0,5.4|
1,2,2|
2,0,0.3|
2,1,6.1|
];
constraint_x15_x7=[
0,1,8.2|
0,2,9.5|
1,0,8.1|
1,2,9.6|
2,0,9.7|
2,1,3.6|
];
constraint_x15_x8=[
0,1,5.8|
0,2,7.5|
1,0,6.7|
1,2,9.7|
2,0,0.13|
2,1,5.9|
];
constraint_x15_x10=[
0,1,7.5|
0,2,2.4|
1,0,7.3|
1,2,6.8|
2,0,4.3|
2,1,1.5|
];
constraint_x15_x11=[
0,1,8.5|
0,2,7.8|
1,0,0.81|
1,2,6.2|
2,0,3.5|
2,1,2.6|
];
constraint_x15_x12=[
0,1,4.6|
0,2,8.4|
1,0,0.82|
1,2,4.1|
2,0,5.5|
2,1,2.7|
];
constraint_x15_x14=[
0,1,5.4|
0,2,8.8|
1,0,6.8|
1,2,9.1|
2,0,0.21|
2,1,2.5|
];
constraint_x1_y1=[
0,0,7.3|
0,1,4.1|
0,2,7.1|
1,0,6.2|
1,1,7.9|
1,2,8.3|
2,0,4.7|
2,1,3.6|
2,2,2.8|
];
constraint_x2_y2=[
0,0,2.4|
0,1,5.3|
0,2,3.7|
1,0,1.1|
1,1,6|
1,2,9.4|
2,0,8.7|
2,1,0.037|
2,2,6.3|
];
constraint_x3_y3=[
0,0,0.12|
0,1,2|
0,2,2.2|
1,0,3.9|
1,1,1.4|
1,2,7.6|
2,0,0.82|
2,1,0.39|
2,2,1.3|
];
initial_distribution_y1=[0.33,0.36,0.31];
initial_distribution_y2=[0.57,0.27,0.16];
initial_distribution_y3=[0.46,0.51,0.03];
transition_y1=[
0.3,0.41,0.29|
0.41,0.23,0.36|
0.099,0.48,0.43|
];
transition_y2=[
0.092,0.53,0.38|
0.6,0.17,0.23|
0.54,0.23,0.24|
];
transition_y3=[
0.28,0.38,0.34|
0.2,0.41,0.39|
0.64,0.34,0.023|
];
